p cnf 689 2254
a 2 3 4 8 13 15 16 20 21 22 26 30 32 36 38 43 44 45 49 53 55 59 61 66 68 70 71 73 76 77 78 79 83 87 89 93 95 97 104 106 107 108 110 111 115 119 121 125 130 131 132 136 140 142 147 151 152 155 159 160 163 167 171 175 177 179 181 183 184 185 191 195 197 198 199 200 201 209 211 215 216 217 218 219 224 225 227 233 237 239 240 243 247 248 249 250 253 256 259 263 264 268 272 274 278 280 281 284 285 289 293 295 299 304 305 306 307 312 313 315 321 325 327 328 331 335 336 337 338 341 344 347 351 352 356 360 362 366 368 369 372 373 377 381 383 387 393 395 397 0
e 1 5 6 7 9 10 11 12 14 17 18 19 23 24 25 27 28 29 31 33 34 35 37 39 40 41 42 46 47 48 50 51 52 54 56 57 58 60 62 63 64 65 67 69 72 74 75 80 81 82 84 85 86 88 90 91 92 94 96 98 99 100 101 102 103 105 109 112 113 114 116 117 118 120 122 123 124 126 127 128 129 133 134 135 137 138 139 141 143 144 145 146 148 149 150 153 154 156 157 158 161 162 164 165 166 168 169 170 172 173 174 176 178 180 182 186 187 188 189 190 192 193 194 196 202 203 204 205 206 207 208 210 212 213 214 220 221 222 223 226 228 229 230 231 232 234 235 236 238 241 242 244 245 246 251 252 254 255 257 258 260 261 262 265 266 267 269 270 271 273 275 276 277 279 282 283 286 287 288 290 291 292 294 296 297 298 300 301 302 303 308 309 310 311 314 316 317 318 319 320 322 323 324 326 329 330 332 333 334 339 340 342 343 345 346 348 349 350 353 354 355 357 358 359 361 363 364 365 367 370 371 374 375 376 378 379 380 382 384 385 386 388 389 390 391 392 394 396 398 399 400 401 402 403 404 405 406 407 408 409 410 411 412 413 414 415 416 417 418 419 420 421 422 423 424 425 426 427 428 429 430 431 432 433 434 435 436 437 438 439 440 441 442 443 444 445 446 447 448 449 450 451 452 453 454 455 456 457 458 459 460 461 462 463 464 465 466 467 468 469 470 471 472 473 474 475 476 477 478 479 480 481 482 483 484 485 486 487 488 489 490 491 492 493 494 495 496 497 498 499 500 501 502 503 504 505 506 507 508 509 510 511 512 513 514 515 516 517 518 519 520 521 522 523 524 525 526 527 528 529 530 531 532 533 534 535 536 537 538 539 540 541 542 543 544 545 546 547 548 549 550 551 552 553 554 555 556 557 558 559 560 561 562 563 564 565 566 567 568 569 570 571 572 573 574 575 576 577 578 579 580 581 582 583 584 585 586 587 588 589 590 591 592 593 594 595 596 597 598 599 600 601 602 603 604 605 606 607 608 609 610 611 612 613 614 615 616 617 618 619 620 621 622 623 624 625 626 627 628 629 630 631 632 633 634 635 636 637 638 639 640 641 642 643 644 645 646 647 648 649 650 651 652 653 654 655 656 657 658 659 660 661 662 663 664 665 666 667 668 669 670 671 672 673 674 675 676 677 678 679 680 681 682 683 684 685 686 687 688 689 0
1 0
3 -5 0
4 -5 0
-3 -4 5 0
3 -6 0
-4 -6 0
-3 4 6 0
3 7 0
-5 7 0
-6 7 0
-3 5 6 -7 0
-8 9 0
8 9 0
2 -10 0
7 -10 0
9 -10 0
-2 -7 -9 10 0
-2 -11 0
7 -11 0
2 -7 11 0
-10 12 0
-11 12 0
10 11 -12 0
-13 14 0
13 14 0
-16 17 0
16 17 0
15 -18 0
17 -18 0
-15 -17 18 0
15 19 0
-18 19 0
-15 18 -19 0
21 -23 0
22 -23 0
-21 -22 23 0
21 -24 0
-22 -24 0
-21 22 24 0
-23 25 0
-24 25 0
23 24 -25 0
25 -27 0
26 -27 0
-25 -26 27 0
25 -28 0
-26 -28 0
-25 26 28 0
-27 29 0
-28 29 0
27 28 -29 0
29 -31 0
-30 -31 0
-29 30 31 0
29 -33 0
30 -33 0
32 -33 0
-29 -30 -32 33 0
29 -34 0
30 -34 0
-32 -34 0
-29 -30 32 34 0
21 35 0
-31 35 0
-33 35 0
-34 35 0
-21 31 33 34 -35 0
20 -37 0
35 -37 0
36 -37 0
-20 -35 -36 37 0
-20 -39 0
38 -39 0
20 -38 39 0
20 -40 0
35 -40 0
-36 -40 0
-20 -35 36 40 0
-20 -41 0
-38 -41 0
20 38 41 0
-40 42 0
-41 42 0
40 41 -42 0
44 -46 0
45 -46 0
-44 -45 46 0
44 -47 0
-45 -47 0
-44 45 47 0
-46 48 0
-47 48 0
46 47 -48 0
48 -50 0
49 -50 0
-48 -49 50 0
48 -51 0
-49 -51 0
-48 49 51 0
-50 52 0
-51 52 0
50 51 -52 0
52 -54 0
-53 -54 0
-52 53 54 0
52 -56 0
53 -56 0
55 -56 0
-52 -53 -55 56 0
52 -57 0
53 -57 0
-55 -57 0
-52 -53 55 57 0
44 58 0
-54 58 0
-56 58 0
-57 58 0
-44 54 56 57 -58 0
42 -60 0
43 -60 0
58 -60 0
59 -60 0
-42 -43 -58 -59 60 0
42 -62 0
-43 -62 0
61 -62 0
-42 43 -61 62 0
42 -63 0
43 -63 0
58 -63 0
-59 -63 0
-42 -43 -58 59 63 0
42 -64 0
-43 -64 0
-61 -64 0
-42 43 61 64 0
-37 65 0
-39 65 0
-60 65 0
-62 65 0
-63 65 0
-64 65 0
37 39 60 62 63 64 -65 0
65 -67 0
66 -67 0
-65 -66 67 0
65 -69 0
-66 -69 0
68 -69 0
-65 66 -68 69 0
70 -72 0
-71 -72 0
-70 71 72 0
-70 -74 0
-73 -74 0
70 73 74 0
-72 75 0
-74 75 0
72 74 -75 0
78 -80 0
79 -80 0
-78 -79 80 0
78 -81 0
-79 -81 0
-78 79 81 0
-80 82 0
-81 82 0
80 81 -82 0
82 -84 0
83 -84 0
-82 -83 84 0
82 -85 0
-83 -85 0
-82 83 85 0
-84 86 0
-85 86 0
84 85 -86 0
86 -88 0
-87 -88 0
-86 87 88 0
86 -90 0
87 -90 0
89 -90 0
-86 -87 -89 90 0
86 -91 0
87 -91 0
-89 -91 0
-86 -87 89 91 0
78 92 0
-88 92 0
-90 92 0
-91 92 0
-78 88 90 91 -92 0
75 -94 0
76 -94 0
77 -94 0
92 -94 0
93 -94 0
-75 -76 -77 -92 -93 94 0
75 -96 0
76 -96 0
-77 -96 0
95 -96 0
-75 -76 77 -95 96 0
70 -98 0
71 -98 0
97 -98 0
-70 -71 -97 98 0
-70 -99 0
73 -99 0
70 -73 99 0
75 -100 0
76 -100 0
77 -100 0
92 -100 0
-93 -100 0
-75 -76 -77 -92 93 100 0
75 -101 0
76 -101 0
-77 -101 0
-95 -101 0
-75 -76 77 95 101 0
70 -102 0
71 -102 0
-97 -102 0
-70 -71 97 102 0
-99 103 0
-100 103 0
-101 103 0
-102 103 0
99 100 101 102 -103 0
103 -105 0
104 -105 0
-103 -104 105 0
103 -109 0
-104 -109 0
-106 -109 0
-107 -109 0
108 -109 0
-103 104 106 107 -108 109 0
110 -112 0
111 -112 0
-110 -111 112 0
110 -113 0
-111 -113 0
-110 111 113 0
-112 114 0
-113 114 0
112 113 -114 0
114 -116 0
115 -116 0
-114 -115 116 0
114 -117 0
-115 -117 0
-114 115 117 0
-116 118 0
-117 118 0
116 117 -118 0
118 -120 0
-119 -120 0
-118 119 120 0
118 -122 0
119 -122 0
121 -122 0
-118 -119 -121 122 0
118 -123 0
119 -123 0
-121 -123 0
-118 -119 121 123 0
110 124 0
-120 124 0
-122 124 0
-123 124 0
-110 120 122 123 -124 0
103 -126 0
-104 -126 0
-106 -126 0
107 -126 0
124 -126 0
125 -126 0
-103 104 106 -107 -124 -125 126 0
103 -127 0
-104 -127 0
-106 -127 0
-107 -127 0
-108 -127 0
-103 104 106 107 108 127 0
103 -128 0
-104 -128 0
-106 -128 0
107 -128 0
124 -128 0
-125 -128 0
-103 104 106 -107 -124 125 128 0
-127 129 0
-128 129 0
127 128 -129 0
131 -133 0
132 -133 0
-131 -132 133 0
131 -134 0
-132 -134 0
-131 132 134 0
-133 135 0
-134 135 0
133 134 -135 0
135 -137 0
136 -137 0
-135 -136 137 0
135 -138 0
-136 -138 0
-135 136 138 0
-137 139 0
-138 139 0
137 138 -139 0
139 -141 0
-140 -141 0
-139 140 141 0
139 -143 0
140 -143 0
142 -143 0
-139 -140 -142 143 0
139 -144 0
140 -144 0
-142 -144 0
-139 -140 142 144 0
131 145 0
-141 145 0
-143 145 0
-144 145 0
-131 141 143 144 -145 0
129 -146 0
130 -146 0
145 -146 0
-129 -130 -145 146 0
75 -148 0
-76 -148 0
147 -148 0
-75 76 -147 148 0
75 -149 0
-76 -149 0
-147 -149 0
-75 76 147 149 0
129 -150 0
-130 -150 0
-129 130 150 0
103 -153 0
-104 -153 0
106 -153 0
151 -153 0
152 -153 0
-103 104 -106 -151 -152 153 0
103 -154 0
-104 -154 0
106 -154 0
151 -154 0
-152 -154 0
-103 104 -106 -151 152 154 0
103 -156 0
-104 -156 0
106 -156 0
-151 -156 0
155 -156 0
-103 104 -106 151 -155 156 0
103 -157 0
-104 -157 0
106 -157 0
-151 -157 0
-155 -157 0
-103 104 -106 151 155 157 0
-153 158 0
-154 158 0
-156 158 0
-157 158 0
153 154 156 157 -158 0
158 -161 0
159 -161 0
160 -161 0
-158 -159 -160 161 0
158 -162 0
159 -162 0
-160 -162 0
-158 -159 160 162 0
158 -164 0
-159 -164 0
163 -164 0
-158 159 -163 164 0
158 -165 0
-159 -165 0
-163 -165 0
-158 159 163 165 0
-94 166 0
-96 166 0
-98 166 0
-105 166 0
-109 166 0
-126 166 0
-146 166 0
-148 166 0
-149 166 0
-150 166 0
-161 166 0
-162 166 0
-164 166 0
-165 166 0
94 96 98 105 109 126 146 148 149 150 161 162 164 165 -166 0
166 -168 0
167 -168 0
-166 -167 168 0
166 -169 0
-167 -169 0
-166 167 169 0
-168 170 0
-169 170 0
168 169 -170 0
170 -172 0
171 -172 0
-170 -171 172 0
170 -173 0
-171 -173 0
-170 171 173 0
-172 174 0
-173 174 0
172 173 -174 0
65 -176 0
-66 -176 0
-68 -176 0
174 -176 0
175 -176 0
-65 66 68 -174 -175 176 0
65 -178 0
-66 -178 0
-68 -178 0
174 -178 0
-175 -178 0
-177 -178 0
-65 66 68 -174 175 177 178 0
65 -180 0
-66 -180 0
-68 -180 0
174 -180 0
-175 -180 0
177 -180 0
179 -180 0
-65 66 68 -174 175 -177 -179 180 0
65 -182 0
-66 -182 0
-68 -182 0
174 -182 0
-175 -182 0
177 -182 0
-179 -182 0
181 -182 0
-65 66 68 -174 175 -177 179 -181 182 0
65 -186 0
-66 -186 0
-68 -186 0
174 -186 0
-175 -186 0
177 -186 0
-179 -186 0
-181 -186 0
-183 -186 0
-184 -186 0
185 -186 0
-65 66 68 -174 175 -177 179 181 183 184 -185 186 0
65 -187 0
-66 -187 0
-68 -187 0
174 -187 0
-175 -187 0
177 -187 0
-179 -187 0
-181 -187 0
-183 -187 0
-184 -187 0
-185 -187 0
-65 66 68 -174 175 -177 179 181 183 184 185 187 0
65 -188 0
-66 -188 0
-68 -188 0
174 -188 0
-175 -188 0
177 -188 0
-179 -188 0
-181 -188 0
183 -188 0
-65 66 68 -174 175 -177 179 181 -183 188 0
65 -189 0
-66 -189 0
-68 -189 0
174 -189 0
-175 -189 0
177 -189 0
-179 -189 0
-181 -189 0
-183 -189 0
184 -189 0
-65 66 68 -174 175 -177 179 181 183 -184 189 0
-188 190 0
-189 190 0
188 189 -190 0
190 -192 0
191 -192 0
-190 -191 192 0
190 -193 0
-191 -193 0
-190 191 193 0
-69 194 0
-176 194 0
-178 194 0
-180 194 0
-182 194 0
-186 194 0
-187 194 0
-192 194 0
-193 194 0
69 176 178 180 182 186 187 192 193 -194 0
194 -196 0
195 -196 0
-194 -195 196 0
194 -202 0
-195 -202 0
197 -202 0
198 -202 0
199 -202 0
200 -202 0
201 -202 0
-194 195 -197 -198 -199 -200 -201 202 0
194 -203 0
-195 -203 0
-197 -203 0
-194 195 197 203 0
194 -204 0
-195 -204 0
197 -204 0
-198 -204 0
-194 195 -197 198 204 0
194 -205 0
-195 -205 0
197 -205 0
198 -205 0
-199 -205 0
-194 195 -197 -198 199 205 0
194 -206 0
-195 -206 0
197 -206 0
198 -206 0
199 -206 0
-200 -206 0
-194 195 -197 -198 -199 200 206 0
194 -207 0
-195 -207 0
197 -207 0
198 -207 0
199 -207 0
200 -207 0
-201 -207 0
-194 195 -197 -198 -199 -200 201 207 0
-203 208 0
-204 208 0
-205 208 0
-206 208 0
-207 208 0
203 204 205 206 207 -208 0
208 -210 0
209 -210 0
-208 -209 210 0
208 -212 0
-209 -212 0
-211 -212 0
-208 209 211 212 0
208 -213 0
-209 -213 0
211 -213 0
-208 209 -211 213 0
-196 214 0
-202 214 0
-210 214 0
-212 214 0
-213 214 0
196 202 210 212 213 -214 0
216 -220 0
217 -220 0
218 -220 0
-219 -220 0
-216 -217 -218 219 220 0
216 -221 0
-217 -221 0
-216 217 221 0
216 -222 0
217 -222 0
-218 -222 0
-216 -217 218 222 0
-221 223 0
-222 223 0
221 222 -223 0
223 -226 0
224 -226 0
225 -226 0
-223 -224 -225 226 0
216 -228 0
217 -228 0
218 -228 0
219 -228 0
227 -228 0
-216 -217 -218 -219 -227 228 0
216 -229 0
217 -229 0
218 -229 0
219 -229 0
-227 -229 0
-216 -217 -218 -219 227 229 0
223 -230 0
-224 -230 0
-223 224 230 0
223 -231 0
224 -231 0
-225 -231 0
-223 -224 225 231 0
-230 232 0
-231 232 0
230 231 -232 0
232 -234 0
233 -234 0
-232 -233 234 0
232 -235 0
-233 -235 0
-232 233 235 0
-220 236 0
-226 236 0
-228 236 0
-229 236 0
-234 236 0
-235 236 0
220 226 228 229 234 235 -236 0
236 -238 0
237 -238 0
-236 -237 238 0
236 -241 0
-237 -241 0
239 -241 0
240 -241 0
-236 237 -239 -240 241 0
236 -242 0
-237 -242 0
239 -242 0
-240 -242 0
-236 237 -239 240 242 0
236 -244 0
-237 -244 0
-239 -244 0
243 -244 0
-236 237 239 -243 244 0
236 -245 0
-237 -245 0
-239 -245 0
-243 -245 0
-236 237 239 243 245 0
-241 246 0
-242 246 0
-244 246 0
-245 246 0
241 242 244 245 -246 0
246 -251 0
247 -251 0
248 -251 0
249 -251 0
250 -251 0
-246 -247 -248 -249 -250 251 0
246 -252 0
247 -252 0
248 -252 0
249 -252 0
-250 -252 0
-246 -247 -248 -249 250 252 0
246 -254 0
247 -254 0
248 -254 0
-249 -254 0
253 -254 0
-246 -247 -248 249 -253 254 0
246 -255 0
247 -255 0
248 -255 0
-249 -255 0
-253 -255 0
-246 -247 -248 249 253 255 0
246 -257 0
247 -257 0
-248 -257 0
256 -257 0
-246 -247 248 -256 257 0
246 -258 0
247 -258 0
-248 -258 0
-256 -258 0
-246 -247 248 256 258 0
246 -260 0
-247 -260 0
259 -260 0
-246 247 -259 260 0
246 -261 0
-247 -261 0
-259 -261 0
-246 247 259 261 0
-238 262 0
-251 262 0
-252 262 0
-254 262 0
-255 262 0
-257 262 0
-258 262 0
-260 262 0
-261 262 0
238 251 252 254 255 257 258 260 261 -262 0
263 -265 0
264 -265 0
-263 -264 265 0
263 -266 0
-264 -266 0
-263 264 266 0
-265 267 0
-266 267 0
265 266 -267 0
267 -269 0
268 -269 0
-267 -268 269 0
267 -270 0
-268 -270 0
-267 268 270 0
-269 271 0
-270 271 0
269 270 -271 0
271 -273 0
-272 -273 0
-271 272 273 0
271 -275 0
272 -275 0
274 -275 0
-271 -272 -274 275 0
271 -276 0
272 -276 0
-274 -276 0
-271 -272 274 276 0
263 277 0
-273 277 0
-275 277 0
-276 277 0
-263 273 275 276 -277 0
262 -279 0
277 -279 0
278 -279 0
-262 -277 -278 279 0
262 -282 0
277 -282 0
-278 -282 0
-280 -282 0
281 -282 0
-262 -277 278 280 -281 282 0
262 -283 0
277 -283 0
-278 -283 0
-280 -283 0
-281 -283 0
-262 -277 278 280 281 283 0
284 -286 0
285 -286 0
-284 -285 286 0
284 -287 0
-285 -287 0
-284 285 287 0
-286 288 0
-287 288 0
286 287 -288 0
288 -290 0
289 -290 0
-288 -289 290 0
288 -291 0
-289 -291 0
-288 289 291 0
-290 292 0
-291 292 0
290 291 -292 0
292 -294 0
-293 -294 0
-292 293 294 0
292 -296 0
293 -296 0
295 -296 0
-292 -293 -295 296 0
292 -297 0
293 -297 0
-295 -297 0
-292 -293 295 297 0
284 298 0
-294 298 0
-296 298 0
-297 298 0
-284 294 296 297 -298 0
262 -300 0
277 -300 0
-278 -300 0
280 -300 0
298 -300 0
299 -300 0
-262 -277 278 -280 -298 -299 300 0
262 -301 0
277 -301 0
-278 -301 0
280 -301 0
298 -301 0
-299 -301 0
-262 -277 278 -280 -298 299 301 0
216 302 0
-279 302 0
-282 302 0
-283 302 0
-300 302 0
-301 302 0
-216 279 282 283 300 301 -302 0
214 -303 0
215 -303 0
302 -303 0
-214 -215 -302 303 0
304 -308 0
305 -308 0
306 -308 0
-307 -308 0
-304 -305 -306 307 308 0
304 -309 0
-305 -309 0
-304 305 309 0
304 -310 0
305 -310 0
-306 -310 0
-304 -305 306 310 0
-309 311 0
-310 311 0
309 310 -311 0
311 -314 0
312 -314 0
313 -314 0
-311 -312 -313 314 0
304 -316 0
305 -316 0
306 -316 0
307 -316 0
315 -316 0
-304 -305 -306 -307 -315 316 0
304 -317 0
305 -317 0
306 -317 0
307 -317 0
-315 -317 0
-304 -305 -306 -307 315 317 0
311 -318 0
-312 -318 0
-311 312 318 0
311 -319 0
312 -319 0
-313 -319 0
-311 -312 313 319 0
-318 320 0
-319 320 0
318 319 -320 0
320 -322 0
321 -322 0
-320 -321 322 0
320 -323 0
-321 -323 0
-320 321 323 0
-308 324 0
-314 324 0
-316 324 0
-317 324 0
-322 324 0
-323 324 0
308 314 316 317 322 323 -324 0
324 -326 0
325 -326 0
-324 -325 326 0
324 -329 0
-325 -329 0
327 -329 0
328 -329 0
-324 325 -327 -328 329 0
324 -330 0
-325 -330 0
327 -330 0
-328 -330 0
-324 325 -327 328 330 0
324 -332 0
-325 -332 0
-327 -332 0
331 -332 0
-324 325 327 -331 332 0
324 -333 0
-325 -333 0
-327 -333 0
-331 -333 0
-324 325 327 331 333 0
-329 334 0
-330 334 0
-332 334 0
-333 334 0
329 330 332 333 -334 0
334 -339 0
335 -339 0
336 -339 0
337 -339 0
338 -339 0
-334 -335 -336 -337 -338 339 0
334 -340 0
335 -340 0
336 -340 0
337 -340 0
-338 -340 0
-334 -335 -336 -337 338 340 0
334 -342 0
335 -342 0
336 -342 0
-337 -342 0
341 -342 0
-334 -335 -336 337 -341 342 0
334 -343 0
335 -343 0
336 -343 0
-337 -343 0
-341 -343 0
-334 -335 -336 337 341 343 0
334 -345 0
335 -345 0
-336 -345 0
344 -345 0
-334 -335 336 -344 345 0
334 -346 0
335 -346 0
-336 -346 0
-344 -346 0
-334 -335 336 344 346 0
334 -348 0
-335 -348 0
347 -348 0
-334 335 -347 348 0
334 -349 0
-335 -349 0
-347 -349 0
-334 335 347 349 0
-326 350 0
-339 350 0
-340 350 0
-342 350 0
-343 350 0
-345 350 0
-346 350 0
-348 350 0
-349 350 0
326 339 340 342 343 345 346 348 349 -350 0
351 -353 0
352 -353 0
-351 -352 353 0
351 -354 0
-352 -354 0
-351 352 354 0
-353 355 0
-354 355 0
353 354 -355 0
355 -357 0
356 -357 0
-355 -356 357 0
355 -358 0
-356 -358 0
-355 356 358 0
-357 359 0
-358 359 0
357 358 -359 0
359 -361 0
-360 -361 0
-359 360 361 0
359 -363 0
360 -363 0
362 -363 0
-359 -360 -362 363 0
359 -364 0
360 -364 0
-362 -364 0
-359 -360 362 364 0
351 365 0
-361 365 0
-363 365 0
-364 365 0
-351 361 363 364 -365 0
350 -367 0
365 -367 0
366 -367 0
-350 -365 -366 367 0
350 -370 0
365 -370 0
-366 -370 0
-368 -370 0
369 -370 0
-350 -365 366 368 -369 370 0
350 -371 0
365 -371 0
-366 -371 0
-368 -371 0
-369 -371 0
-350 -365 366 368 369 371 0
372 -374 0
373 -374 0
-372 -373 374 0
372 -375 0
-373 -375 0
-372 373 375 0
-374 376 0
-375 376 0
374 375 -376 0
376 -378 0
377 -378 0
-376 -377 378 0
376 -379 0
-377 -379 0
-376 377 379 0
-378 380 0
-379 380 0
378 379 -380 0
380 -382 0
-381 -382 0
-380 381 382 0
380 -384 0
381 -384 0
383 -384 0
-380 -381 -383 384 0
380 -385 0
381 -385 0
-383 -385 0
-380 -381 383 385 0
372 386 0
-382 386 0
-384 386 0
-385 386 0
-372 382 384 385 -386 0
350 -388 0
365 -388 0
-366 -388 0
368 -388 0
386 -388 0
387 -388 0
-350 -365 366 -368 -386 -387 388 0
350 -389 0
365 -389 0
-366 -389 0
368 -389 0
386 -389 0
-387 -389 0
-350 -365 366 -368 -386 387 389 0
304 390 0
-367 390 0
-370 390 0
-371 390 0
-388 390 0
-389 390 0
-304 367 370 371 388 389 -390 0
214 -391 0
-215 -391 0
390 -391 0
-214 215 -390 391 0
-67 392 0
-303 392 0
-391 392 0
67 303 391 -392 0
392 -394 0
393 -394 0
-392 -393 394 0
392 -396 0
-393 -396 0
395 -396 0
-392 393 -395 396 0
392 -398 0
-393 -398 0
-395 -398 0
397 -398 0
-392 393 395 -397 398 0
392 -399 0
-393 -399 0
-395 -399 0
-397 -399 0
-392 393 395 397 399 0
-394 400 0
-396 400 0
-398 400 0
-399 400 0
394 396 398 399 -400 0
12 -401 0
14 -401 0
19 -401 0
400 -401 0
-12 -14 -19 -400 401 0
-8 402 0
8 402 0
2 -403 0
402 -403 0
-2 -402 403 0
-403 404 0
2 404 0
403 -2 -404 0
404 -405 0
15 -405 0
17 -405 0
-404 -15 -17 405 0
404 -406 0
-15 -406 0
-404 15 406 0
-405 407 0
-406 407 0
405 406 -407 0
407 -408 0
-20 -408 0
-38 -408 0
-407 20 38 408 0
407 -409 0
-21 -409 0
-407 21 409 0
407 -410 0
29 -410 0
-30 -410 0
-407 -29 30 410 0
-33 411 0
-34 411 0
33 34 -411 0
407 -412 0
411 -412 0
-407 -411 412 0
-409 413 0
-410 413 0
-412 413 0
409 410 412 -413 0
413 -414 0
20 -414 0
35 -414 0
-36 -414 0
-413 -20 -35 36 414 0
-408 415 0
-414 415 0
408 414 -415 0
415 -416 0
42 -416 0
-43 -416 0
61 -416 0
-415 -42 43 -61 416 0
415 -417 0
-44 -417 0
-415 44 417 0
415 -418 0
52 -418 0
-53 -418 0
-415 -52 53 418 0
-56 419 0
-57 419 0
56 57 -419 0
415 -420 0
419 -420 0
-415 -419 420 0
-417 421 0
-418 421 0
-420 421 0
417 418 420 -421 0
421 -422 0
42 -422 0
43 -422 0
58 -422 0
59 -422 0
-421 -42 -43 -58 -59 422 0
-416 423 0
-422 423 0
416 422 -423 0
-60 424 0
-62 424 0
60 62 -424 0
423 -425 0
424 -425 0
-423 -424 425 0
415 -426 0
42 -426 0
-43 -426 0
-61 -426 0
-415 -42 43 61 426 0
421 -427 0
42 -427 0
43 -427 0
58 -427 0
-59 -427 0
-421 -42 -43 -58 59 427 0
-426 428 0
-427 428 0
426 427 -428 0
-63 429 0
-64 429 0
63 64 -429 0
428 -430 0
429 -430 0
-428 -429 430 0
407 -431 0
-20 -431 0
38 -431 0
-407 20 -38 431 0
413 -432 0
20 -432 0
35 -432 0
36 -432 0
-413 -20 -35 -36 432 0
-431 433 0
-432 433 0
431 432 -433 0
-37 434 0
-39 434 0
37 39 -434 0
433 -435 0
434 -435 0
-433 -434 435 0
-425 436 0
-430 436 0
-435 436 0
425 430 435 -436 0
436 -437 0
65 -437 0
66 -437 0
-436 -65 -66 437 0
436 -438 0
65 -438 0
-66 -438 0
68 -438 0
-436 -65 66 -68 438 0
436 -439 0
70 -439 0
71 -439 0
97 -439 0
-436 -70 -71 -97 439 0
436 -440 0
70 -440 0
-71 -440 0
-436 -70 71 440 0
436 -441 0
-70 -441 0
-73 -441 0
-436 70 73 441 0
-440 442 0
-441 442 0
440 441 -442 0
-148 443 0
-149 443 0
148 149 -443 0
442 -444 0
443 -444 0
-442 -443 444 0
442 -445 0
75 -445 0
76 -445 0
-77 -445 0
95 -445 0
-442 -75 -76 77 -95 445 0
442 -446 0
-78 -446 0
-442 78 446 0
442 -447 0
86 -447 0
-87 -447 0
-442 -86 87 447 0
-90 448 0
-91 448 0
90 91 -448 0
442 -449 0
448 -449 0
-442 -448 449 0
-446 450 0
-447 450 0
-449 450 0
446 447 449 -450 0
450 -451 0
75 -451 0
76 -451 0
77 -451 0
92 -451 0
93 -451 0
-450 -75 -76 -77 -92 -93 451 0
436 -452 0
70 -452 0
71 -452 0
-97 -452 0
-436 -70 -71 97 452 0
436 -453 0
-70 -453 0
73 -453 0
-436 70 -73 453 0
442 -454 0
75 -454 0
76 -454 0
-77 -454 0
-95 -454 0
-442 -75 -76 77 95 454 0
450 -455 0
75 -455 0
76 -455 0
77 -455 0
92 -455 0
-93 -455 0
-450 -75 -76 -77 -92 93 455 0
-452 456 0
-453 456 0
-454 456 0
-455 456 0
452 453 454 455 -456 0
456 -457 0
103 -457 0
104 -457 0
-456 -103 -104 457 0
456 -458 0
103 -458 0
-104 -458 0
-106 -458 0
-107 -458 0
108 -458 0
-456 -103 104 106 107 -108 458 0
456 -459 0
-110 -459 0
-456 110 459 0
456 -460 0
118 -460 0
-119 -460 0
-456 -118 119 460 0
-122 461 0
-123 461 0
122 123 -461 0
456 -462 0
461 -462 0
-456 -461 462 0
-459 463 0
-460 463 0
-462 463 0
459 460 462 -463 0
463 -464 0
103 -464 0
-104 -464 0
-106 -464 0
107 -464 0
124 -464 0
125 -464 0
-463 -103 104 106 -107 -124 -125 464 0
456 -465 0
103 -465 0
-104 -465 0
-106 -465 0
-107 -465 0
-108 -465 0
-456 -103 104 106 107 108 465 0
463 -466 0
103 -466 0
-104 -466 0
-106 -466 0
107 -466 0
124 -466 0
-125 -466 0
-463 -103 104 106 -107 -124 125 466 0
-465 467 0
-466 467 0
465 466 -467 0
467 -468 0
129 -468 0
-130 -468 0
-467 -129 130 468 0
467 -469 0
-131 -469 0
-467 131 469 0
467 -470 0
139 -470 0
-140 -470 0
-467 -139 140 470 0
-143 471 0
-144 471 0
143 144 -471 0
467 -472 0
471 -472 0
-467 -471 472 0
-469 473 0
-470 473 0
-472 473 0
469 470 472 -473 0
473 -474 0
129 -474 0
130 -474 0
145 -474 0
-473 -129 -130 -145 474 0
-161 475 0
-162 475 0
-164 475 0
-165 475 0
161 162 164 165 -475 0
456 -476 0
475 -476 0
-456 -475 476 0
-439 477 0
-444 477 0
-445 477 0
-451 477 0
-457 477 0
-458 477 0
-464 477 0
-468 477 0
-474 477 0
-476 477 0
439 444 445 451 457 458 464 468 474 476 -477 0
477 -478 0
166 -478 0
167 -478 0
-477 -166 -167 478 0
477 -479 0
166 -479 0
-167 -479 0
-477 -166 167 479 0
-478 480 0
-479 480 0
478 479 -480 0
-176 481 0
-178 481 0
-180 481 0
176 178 180 -481 0
480 -482 0
481 -482 0
-480 -481 482 0
480 -483 0
65 -483 0
-66 -483 0
-68 -483 0
174 -483 0
-175 -483 0
177 -483 0
-179 -483 0
181 -483 0
-480 -65 66 68 -174 175 -177 179 -181 483 0
-186 484 0
-187 484 0
-192 484 0
-193 484 0
186 187 192 193 -484 0
480 -485 0
484 -485 0
-480 -484 485 0
-482 486 0
-483 486 0
-485 486 0
482 483 485 -486 0
-176 487 0
-178 487 0
-180 487 0
-182 487 0
-186 487 0
-187 487 0
-192 487 0
-193 487 0
176 178 180 182 186 187 192 193 -487 0
486 -488 0
487 -488 0
-486 -487 488 0
-438 489 0
-488 489 0
438 488 -489 0
489 -490 0
194 -490 0
195 -490 0
-489 -194 -195 490 0
489 -491 0
194 -491 0
-195 -491 0
197 -491 0
198 -491 0
199 -491 0
200 -491 0
201 -491 0
-489 -194 195 -197 -198 -199 -200 -201 491 0
489 -492 0
194 -492 0
-195 -492 0
-197 -492 0
-489 -194 195 197 492 0
489 -493 0
194 -493 0
-195 -493 0
197 -493 0
-198 -493 0
-489 -194 195 -197 198 493 0
489 -494 0
194 -494 0
-195 -494 0
197 -494 0
198 -494 0
-199 -494 0
-489 -194 195 -197 -198 199 494 0
489 -495 0
194 -495 0
-195 -495 0
197 -495 0
198 -495 0
199 -495 0
-200 -495 0
-489 -194 195 -197 -198 -199 200 495 0
489 -496 0
194 -496 0
-195 -496 0
197 -496 0
198 -496 0
199 -496 0
200 -496 0
-201 -496 0
-489 -194 195 -197 -198 -199 -200 201 496 0
-492 497 0
-493 497 0
-494 497 0
-495 497 0
-496 497 0
492 493 494 495 496 -497 0
-210 498 0
-212 498 0
210 212 -498 0
497 -499 0
498 -499 0
-497 -498 499 0
497 -500 0
208 -500 0
-209 -500 0
211 -500 0
-497 -208 209 -211 500 0
-490 501 0
-491 501 0
-499 501 0
-500 501 0
490 491 499 500 -501 0
501 -502 0
-216 -502 0
-501 216 502 0
501 -503 0
-263 -503 0
-501 263 503 0
501 -504 0
271 -504 0
-272 -504 0
-501 -271 272 504 0
-275 505 0
-276 505 0
275 276 -505 0
501 -506 0
505 -506 0
-501 -505 506 0
-503 507 0
-504 507 0
-506 507 0
503 504 506 -507 0
507 -508 0
262 -508 0
277 -508 0
278 -508 0
-507 -262 -277 -278 508 0
-282 509 0
-283 509 0
282 283 -509 0
507 -510 0
509 -510 0
-507 -509 510 0
507 -511 0
-284 -511 0
-507 284 511 0
507 -512 0
292 -512 0
-293 -512 0
-507 -292 293 512 0
-296 513 0
-297 513 0
296 297 -513 0
507 -514 0
513 -514 0
-507 -513 514 0
-511 515 0
-512 515 0
-514 515 0
511 512 514 -515 0
-300 516 0
-301 516 0
300 301 -516 0
515 -517 0
516 -517 0
-515 -516 517 0
-502 518 0
-508 518 0
-510 518 0
-517 518 0
502 508 510 517 -518 0
518 -519 0
214 -519 0
215 -519 0
302 -519 0
-518 -214 -215 -302 519 0
501 -520 0
-304 -520 0
-501 304 520 0
501 -521 0
-351 -521 0
-501 351 521 0
501 -522 0
359 -522 0
-360 -522 0
-501 -359 360 522 0
-363 523 0
-364 523 0
363 364 -523 0
501 -524 0
523 -524 0
-501 -523 524 0
-521 525 0
-522 525 0
-524 525 0
521 522 524 -525 0
525 -526 0
350 -526 0
365 -526 0
366 -526 0
-525 -350 -365 -366 526 0
-370 527 0
-371 527 0
370 371 -527 0
525 -528 0
527 -528 0
-525 -527 528 0
525 -529 0
-372 -529 0
-525 372 529 0
525 -530 0
380 -530 0
-381 -530 0
-525 -380 381 530 0
-384 531 0
-385 531 0
384 385 -531 0
525 -532 0
531 -532 0
-525 -531 532 0
-529 533 0
-530 533 0
-532 533 0
529 530 532 -533 0
-388 534 0
-389 534 0
388 389 -534 0
533 -535 0
534 -535 0
-533 -534 535 0
-520 536 0
-526 536 0
-528 536 0
-535 536 0
520 526 528 535 -536 0
536 -537 0
214 -537 0
-215 -537 0
390 -537 0
-536 -214 215 -390 537 0
-437 538 0
-519 538 0
-537 538 0
437 519 537 -538 0
-8 539 0
8 539 0
2 -540 0
539 -540 0
-2 -539 540 0
-540 541 0
2 541 0
540 -2 -541 0
541 -542 0
15 -542 0
17 -542 0
-541 -15 -17 542 0
541 -543 0
-15 -543 0
-541 15 543 0
-542 544 0
-543 544 0
542 543 -544 0
544 -545 0
-20 -545 0
-38 -545 0
-544 20 38 545 0
544 -546 0
-21 -546 0
-544 21 546 0
544 -547 0
29 -547 0
-30 -547 0
-544 -29 30 547 0
544 -548 0
411 -548 0
-544 -411 548 0
-546 549 0
-547 549 0
-548 549 0
546 547 548 -549 0
549 -550 0
20 -550 0
35 -550 0
-36 -550 0
-549 -20 -35 36 550 0
-545 551 0
-550 551 0
545 550 -551 0
551 -552 0
42 -552 0
-43 -552 0
61 -552 0
-551 -42 43 -61 552 0
551 -553 0
-44 -553 0
-551 44 553 0
551 -554 0
52 -554 0
-53 -554 0
-551 -52 53 554 0
551 -555 0
419 -555 0
-551 -419 555 0
-553 556 0
-554 556 0
-555 556 0
553 554 555 -556 0
556 -557 0
42 -557 0
43 -557 0
58 -557 0
59 -557 0
-556 -42 -43 -58 -59 557 0
-552 558 0
-557 558 0
552 557 -558 0
558 -559 0
424 -559 0
-558 -424 559 0
551 -560 0
42 -560 0
-43 -560 0
-61 -560 0
-551 -42 43 61 560 0
556 -561 0
42 -561 0
43 -561 0
58 -561 0
-59 -561 0
-556 -42 -43 -58 59 561 0
-560 562 0
-561 562 0
560 561 -562 0
562 -563 0
429 -563 0
-562 -429 563 0
544 -564 0
-20 -564 0
38 -564 0
-544 20 -38 564 0
549 -565 0
20 -565 0
35 -565 0
36 -565 0
-549 -20 -35 -36 565 0
-564 566 0
-565 566 0
564 565 -566 0
566 -567 0
434 -567 0
-566 -434 567 0
-559 568 0
-563 568 0
-567 568 0
559 563 567 -568 0
568 -569 0
65 -569 0
66 -569 0
-568 -65 -66 569 0
568 -570 0
65 -570 0
-66 -570 0
68 -570 0
-568 -65 66 -68 570 0
568 -571 0
70 -571 0
71 -571 0
97 -571 0
-568 -70 -71 -97 571 0
568 -572 0
70 -572 0
-71 -572 0
-568 -70 71 572 0
568 -573 0
-70 -573 0
-73 -573 0
-568 70 73 573 0
-572 574 0
-573 574 0
572 573 -574 0
574 -575 0
443 -575 0
-574 -443 575 0
574 -576 0
75 -576 0
76 -576 0
-77 -576 0
95 -576 0
-574 -75 -76 77 -95 576 0
574 -577 0
-78 -577 0
-574 78 577 0
574 -578 0
86 -578 0
-87 -578 0
-574 -86 87 578 0
574 -579 0
448 -579 0
-574 -448 579 0
-577 580 0
-578 580 0
-579 580 0
577 578 579 -580 0
580 -581 0
75 -581 0
76 -581 0
77 -581 0
92 -581 0
93 -581 0
-580 -75 -76 -77 -92 -93 581 0
568 -582 0
70 -582 0
71 -582 0
-97 -582 0
-568 -70 -71 97 582 0
568 -583 0
-70 -583 0
73 -583 0
-568 70 -73 583 0
574 -584 0
75 -584 0
76 -584 0
-77 -584 0
-95 -584 0
-574 -75 -76 77 95 584 0
580 -585 0
75 -585 0
76 -585 0
77 -585 0
92 -585 0
-93 -585 0
-580 -75 -76 -77 -92 93 585 0
-582 586 0
-583 586 0
-584 586 0
-585 586 0
582 583 584 585 -586 0
586 -587 0
103 -587 0
104 -587 0
-586 -103 -104 587 0
586 -588 0
103 -588 0
-104 -588 0
-106 -588 0
-107 -588 0
108 -588 0
-586 -103 104 106 107 -108 588 0
586 -589 0
-110 -589 0
-586 110 589 0
586 -590 0
118 -590 0
-119 -590 0
-586 -118 119 590 0
586 -591 0
461 -591 0
-586 -461 591 0
-589 592 0
-590 592 0
-591 592 0
589 590 591 -592 0
592 -593 0
103 -593 0
-104 -593 0
-106 -593 0
107 -593 0
124 -593 0
125 -593 0
-592 -103 104 106 -107 -124 -125 593 0
586 -594 0
103 -594 0
-104 -594 0
-106 -594 0
-107 -594 0
-108 -594 0
-586 -103 104 106 107 108 594 0
592 -595 0
103 -595 0
-104 -595 0
-106 -595 0
107 -595 0
124 -595 0
-125 -595 0
-592 -103 104 106 -107 -124 125 595 0
-594 596 0
-595 596 0
594 595 -596 0
596 -597 0
129 -597 0
-130 -597 0
-596 -129 130 597 0
596 -598 0
-131 -598 0
-596 131 598 0
596 -599 0
139 -599 0
-140 -599 0
-596 -139 140 599 0
596 -600 0
471 -600 0
-596 -471 600 0
-598 601 0
-599 601 0
-600 601 0
598 599 600 -601 0
601 -602 0
129 -602 0
130 -602 0
145 -602 0
-601 -129 -130 -145 602 0
586 -603 0
475 -603 0
-586 -475 603 0
-571 604 0
-575 604 0
-576 604 0
-581 604 0
-587 604 0
-588 604 0
-593 604 0
-597 604 0
-602 604 0
-603 604 0
571 575 576 581 587 588 593 597 602 603 -604 0
604 -605 0
166 -605 0
167 -605 0
-604 -166 -167 605 0
604 -606 0
166 -606 0
-167 -606 0
-604 -166 167 606 0
-605 607 0
-606 607 0
605 606 -607 0
-176 608 0
-178 608 0
-180 608 0
176 178 180 -608 0
607 -609 0
608 -609 0
-607 -608 609 0
607 -610 0
65 -610 0
-66 -610 0
-68 -610 0
174 -610 0
-175 -610 0
177 -610 0
-179 -610 0
181 -610 0
-607 -65 66 68 -174 175 -177 179 -181 610 0
607 -611 0
484 -611 0
-607 -484 611 0
-609 612 0
-610 612 0
-611 612 0
609 610 611 -612 0
612 -613 0
487 -613 0
-612 -487 613 0
-570 614 0
-613 614 0
570 613 -614 0
614 -615 0
194 -615 0
195 -615 0
-614 -194 -195 615 0
614 -616 0
194 -616 0
-195 -616 0
197 -616 0
198 -616 0
199 -616 0
200 -616 0
201 -616 0
-614 -194 195 -197 -198 -199 -200 -201 616 0
614 -617 0
194 -617 0
-195 -617 0
-197 -617 0
-614 -194 195 197 617 0
614 -618 0
194 -618 0
-195 -618 0
197 -618 0
-198 -618 0
-614 -194 195 -197 198 618 0
614 -619 0
194 -619 0
-195 -619 0
197 -619 0
198 -619 0
-199 -619 0
-614 -194 195 -197 -198 199 619 0
614 -620 0
194 -620 0
-195 -620 0
197 -620 0
198 -620 0
199 -620 0
-200 -620 0
-614 -194 195 -197 -198 -199 200 620 0
614 -621 0
194 -621 0
-195 -621 0
197 -621 0
198 -621 0
199 -621 0
200 -621 0
-201 -621 0
-614 -194 195 -197 -198 -199 -200 201 621 0
-617 622 0
-618 622 0
-619 622 0
-620 622 0
-621 622 0
617 618 619 620 621 -622 0
-210 623 0
-212 623 0
210 212 -623 0
622 -624 0
623 -624 0
-622 -623 624 0
622 -625 0
208 -625 0
-209 -625 0
211 -625 0
-622 -208 209 -211 625 0
-615 626 0
-616 626 0
-624 626 0
-625 626 0
615 616 624 625 -626 0
626 -627 0
-216 -627 0
-626 216 627 0
626 -628 0
-263 -628 0
-626 263 628 0
626 -629 0
271 -629 0
-272 -629 0
-626 -271 272 629 0
626 -630 0
505 -630 0
-626 -505 630 0
-628 631 0
-629 631 0
-630 631 0
628 629 630 -631 0
631 -632 0
262 -632 0
277 -632 0
278 -632 0
-631 -262 -277 -278 632 0
631 -633 0
509 -633 0
-631 -509 633 0
631 -634 0
-284 -634 0
-631 284 634 0
631 -635 0
292 -635 0
-293 -635 0
-631 -292 293 635 0
631 -636 0
513 -636 0
-631 -513 636 0
-634 637 0
-635 637 0
-636 637 0
634 635 636 -637 0
637 -638 0
516 -638 0
-637 -516 638 0
-627 639 0
-632 639 0
-633 639 0
-638 639 0
627 632 633 638 -639 0
639 -640 0
214 -640 0
215 -640 0
302 -640 0
-639 -214 -215 -302 640 0
626 -641 0
-304 -641 0
-626 304 641 0
626 -642 0
-351 -642 0
-626 351 642 0
626 -643 0
359 -643 0
-360 -643 0
-626 -359 360 643 0
626 -644 0
523 -644 0
-626 -523 644 0
-642 645 0
-643 645 0
-644 645 0
642 643 644 -645 0
645 -646 0
350 -646 0
365 -646 0
366 -646 0
-645 -350 -365 -366 646 0
645 -647 0
527 -647 0
-645 -527 647 0
645 -648 0
-372 -648 0
-645 372 648 0
645 -649 0
380 -649 0
-381 -649 0
-645 -380 381 649 0
645 -650 0
531 -650 0
-645 -531 650 0
-648 651 0
-649 651 0
-650 651 0
648 649 650 -651 0
651 -652 0
534 -652 0
-651 -534 652 0
-641 653 0
-646 653 0
-647 653 0
-652 653 0
641 646 647 652 -653 0
653 -654 0
214 -654 0
-215 -654 0
390 -654 0
-653 -214 215 -390 654 0
-569 655 0
-640 655 0
-654 655 0
569 640 654 -655 0
657 -659 0
658 -659 0
-657 -658 659 0
657 -660 0
-658 -660 0
-657 658 660 0
657 661 0
-659 661 0
-660 661 0
-657 659 660 -661 0
-662 663 0
662 663 0
656 -664 0
661 -664 0
663 -664 0
-656 -661 -663 664 0
-656 -665 0
661 -665 0
656 -661 665 0
-664 666 0
-665 666 0
664 665 -666 0
-667 668 0
667 668 0
-670 671 0
670 671 0
669 -672 0
671 -672 0
-669 -671 672 0
669 673 0
-672 673 0
-669 672 -673 0
666 -674 0
668 -674 0
673 -674 0
-666 -668 -673 674 0
-662 675 0
662 675 0
656 -676 0
675 -676 0
-656 -675 676 0
-676 677 0
656 677 0
676 -656 -677 0
677 -678 0
669 -678 0
671 -678 0
-677 -669 -671 678 0
677 -679 0
-669 -679 0
-677 669 679 0
-678 680 0
-679 680 0
678 679 -680 0
-662 681 0
662 681 0
656 -682 0
681 -682 0
-656 -681 682 0
-682 683 0
656 683 0
682 -656 -683 0
683 -684 0
669 -684 0
671 -684 0
-683 -669 -671 684 0
683 -685 0
-669 -685 0
-683 669 685 0
-684 686 0
-685 686 0
684 685 -686 0
-680 -538 -687 0
680 538 -687 0
-680 538 687 0
680 -538 687 0
-686 -655 -688 0
686 655 -688 0
-686 655 688 0
686 -655 688 0
-687 -689 0
-688 -689 0
674 -689 0
687 688 -674 689 0
-401 689 0
